; sample line 3
(set-logic QF_LIA) ; Quantifier-Free Linear Integer Arithmetic (or QF_LRA for Reals)
(declare-const n0 Int)
(declare-const n1 Int)
(declare-const n2 Int)
(declare-const n3 Int)
(declare-const n4 Int)
(assert (>= n0 0))
(assert (>= n1 0))
(assert (>= n2 0))
(assert (>= n3 0))
(assert (>= n4 0))
(assert (= (+ n0 n2 n3) 7))
(assert (= (+ n3 n4) 5))
(assert (= (+ n0 n1 n3 n4) 12))
(assert (= (+ n0 n1 n4) 7))
(assert (= (+ n0 n2 n4) 2))
(check-sat)
(get-model)
